SDVRP instances/custom_instances/p02_18_split0.vrp
NAME:p02_18_split
BEST_KNOWN: 0
COMMENT: 0
DIMENSION: 390
CAPACITY: 140
EDGE_WEIGHT_FORMAT: FUNCTION
EDGE_WEIGHT_TYPE: EXACT_2D
NODE_COORD_SECTION
1 0.00000 0.00000
2 27 47
3 27 47
4 27 47
5 27 47
6 27 47
7 27 47
8 27 47
9 -5 25
10 -5 25
11 -5 25
12 -5 25
13 -5 25
14 -5 25
15 -5 25
16 -5 25
17 41 -35
18 41 -35
19 41 -35
20 41 -35
21 41 -35
22 41 -35
23 41 -35
24 41 -35
25 41 -35
26 -49 23
27 -49 23
28 48 -20
29 48 -20
30 48 -20
31 48 -20
32 48 -20
33 48 -20
34 35 -35
35 35 -35
36 35 -35
37 35 -35
38 35 -35
39 35 -35
40 35 -35
41 49 24
42 49 24
43 49 24
44 49 24
45 12 8
46 12 8
47 12 8
48 12 8
49 12 8
50 12 8
51 -7 10
52 21 -19
53 21 -19
54 21 -19
55 21 -19
56 21 -19
57 21 -19
58 21 -19
59 21 -19
60 9 15
61 9 15
62 9 15
63 9 15
64 13 6
65 13 6
66 13 6
67 13 6
68 -13 8
69 -13 8
70 -13 8
71 -13 8
72 -13 8
73 -13 8
74 -13 8
75 -13 8
76 -45 -30
77 -45 -30
78 36 -19
79 36 -19
80 36 -19
81 -4 11
82 -4 11
83 -4 11
84 -4 11
85 45 48
86 45 48
87 45 48
88 45 48
89 45 48
90 45 48
91 -49 7
92 -49 7
93 -49 7
94 -49 7
95 -49 7
96 -49 7
97 -49 7
98 27 12
99 27 12
100 27 12
101 27 12
102 -2 32
103 -2 32
104 -2 32
105 -2 32
106 -2 32
107 -2 32
108 -2 32
109 -2 32
110 -2 32
111 6 8
112 6 8
113 -12 1
114 -12 1
115 -42 33
116 -42 33
117 -42 33
118 -42 33
119 -42 33
120 -42 33
121 -42 33
122 25 5
123 25 5
124 25 5
125 25 5
126 -3 0
127 -3 0
128 -3 0
129 -3 0
130 -3 0
131 -3 0
132 29 -12
133 29 -12
134 29 -12
135 29 -12
136 29 -12
137 29 -12
138 29 -12
139 -14 43
140 -14 43
141 -11 -45
142 -11 -45
143 -11 -45
144 -16 32
145 -16 32
146 -16 32
147 -16 32
148 -16 32
149 -16 32
150 -16 32
151 -16 32
152 37 -29
153 37 -29
154 37 -29
155 37 -29
156 37 -29
157 37 -29
158 37 -29
159 37 -29
160 -34 32
161 -34 32
162 -34 32
163 -34 32
164 -34 32
165 -34 32
166 -34 32
167 -18 -47
168 -18 -47
169 -18 -47
170 -18 -47
171 23 -21
172 23 -21
173 13 44
174 13 44
175 13 44
176 -6 -49
177 -6 -49
178 -6 -49
179 -6 -49
180 50 3
181 50 3
182 50 3
183 50 3
184 50 3
185 17 -37
186 17 -37
187 17 -37
188 17 -37
189 17 -37
190 17 -37
191 8 1
192 8 1
193 8 1
194 8 1
195 8 1
196 8 1
197 8 1
198 48 38
199 48 38
200 48 38
201 -50 -48
202 -50 -48
203 -50 -48
204 4 -44
205 4 -44
206 4 -44
207 4 -44
208 4 -44
209 4 -44
210 4 -44
211 14 -25
212 14 -25
213 14 -25
214 14 -25
215 24 -46
216 24 -46
217 24 -46
218 24 -46
219 24 -46
220 24 -46
221 24 -46
222 -25 -2
223 -25 -2
224 -25 -2
225 -25 -2
226 -25 -2
227 -25 -2
228 -25 -2
229 25 48
230 25 48
231 25 48
232 25 48
233 25 48
234 25 48
235 -13 -18
236 -13 -18
237 -13 -18
238 -13 -18
239 -13 -18
240 20 -33
241 20 -33
242 20 -33
243 20 -33
244 20 -33
245 20 -33
246 -6 7
247 -6 7
248 -6 7
249 -6 7
250 21 28
251 21 28
252 38 -3
253 38 -3
254 38 -3
255 38 -3
256 38 -3
257 38 -3
258 38 -3
259 38 -3
260 -1 5
261 -1 5
262 -1 5
263 -1 5
264 -18 -6
265 -18 -6
266 -18 -6
267 -18 -6
268 -18 -6
269 -18 -6
270 -18 -6
271 -18 -6
272 1 -24
273 1 -24
274 1 -24
275 1 -24
276 1 -24
277 1 -24
278 1 -24
279 -43 28
280 -43 28
281 -43 28
282 -43 28
283 -43 28
284 -43 28
285 -43 28
286 -43 28
287 -1 25
288 -1 25
289 -1 25
290 -1 25
291 -1 25
292 -1 25
293 -1 25
294 -1 25
295 44 38
296 44 38
297 44 38
298 44 38
299 44 38
300 44 38
301 29 -19
302 29 -19
303 29 -19
304 49 -15
305 49 -15
306 49 -15
307 49 -15
308 49 -15
309 49 -15
310 49 -15
311 -39 9
312 -39 9
313 -39 9
314 26 39
315 26 39
316 26 39
317 26 39
318 26 39
319 26 39
320 26 39
321 26 39
322 -7 45
323 -7 45
324 -7 45
325 -7 45
326 -7 45
327 -7 45
328 -49 -26
329 -49 -26
330 -49 -26
331 -49 -26
332 -49 -26
333 43 -13
334 43 -13
335 12 22
336 15 40
337 15 40
338 15 40
339 15 40
340 15 40
341 15 40
342 15 40
343 12 3
344 12 3
345 12 3
346 12 3
347 30 11
348 30 11
349 30 11
350 30 11
351 30 11
352 30 11
353 30 11
354 30 11
355 45 -19
356 45 -19
357 45 -19
358 45 -19
359 45 -19
360 45 -19
361 45 -19
362 2 33
363 2 33
364 35 -42
365 35 -42
366 35 -42
367 35 -42
368 35 -42
369 35 -42
370 -41 0
371 -41 0
372 -41 0
373 -41 0
374 13 50
375 -15 -33
376 -15 -33
377 -15 -33
378 -15 -33
379 -15 -33
380 -15 -33
381 -15 -33
382 -3 42
383 -3 42
384 -3 42
385 -3 42
386 -3 42
387 -3 42
388 -3 42
389 17 -45
390 17 -45
DEMAND_SECTION
1 0
2 28
3 14
4 7
5 1
6 1
7 1
8 1
9 28
10 7
11 1
12 1
13 1
14 1
15 1
16 1
17 28
18 14
19 7
20 1
21 1
22 1
23 1
24 1
25 1
26 28
27 1
28 28
29 28
30 7
31 1
32 1
33 1
34 28
35 28
36 1
37 1
38 1
39 1
40 1
41 28
42 28
43 7
44 1
45 28
46 28
47 7
48 1
49 1
50 1
51 28
52 28
53 14
54 7
55 1
56 1
57 1
58 1
59 1
60 14
61 7
62 1
63 1
64 28
65 7
66 1
67 1
68 28
69 7
70 1
71 1
72 1
73 1
74 1
75 1
76 28
77 28
78 28
79 14
80 7
81 28
82 28
83 1
84 1
85 28
86 28
87 1
88 1
89 1
90 1
91 28
92 14
93 1
94 1
95 1
96 1
97 1
98 28
99 7
100 1
101 1
102 28
103 14
104 7
105 1
106 1
107 1
108 1
109 1
110 1
111 28
112 28
113 28
114 1
115 14
116 1
117 1
118 1
119 1
120 1
121 1
122 14
123 7
124 1
125 1
126 14
127 7
128 1
129 1
130 1
131 1
132 14
133 1
134 1
135 1
136 1
137 1
138 1
139 28
140 7
141 28
142 1
143 1
144 28
145 28
146 1
147 1
148 1
149 1
150 1
151 1
152 28
153 14
154 7
155 1
156 1
157 1
158 1
159 1
160 28
161 1
162 1
163 1
164 1
165 1
166 1
167 14
168 1
169 1
170 1
171 28
172 14
173 28
174 14
175 7
176 28
177 14
178 1
179 1
180 28
181 14
182 7
183 1
184 1
185 28
186 14
187 1
188 1
189 1
190 1
191 28
192 14
193 7
194 1
195 1
196 1
197 1
198 28
199 28
200 1
201 28
202 14
203 7
204 28
205 28
206 1
207 1
208 1
209 1
210 1
211 28
212 14
213 7
214 1
215 28
216 28
217 7
218 1
219 1
220 1
221 1
222 14
223 1
224 1
225 1
226 1
227 1
228 1
229 28
230 14
231 7
232 1
233 1
234 1
235 14
236 7
237 1
238 1
239 1
240 14
241 7
242 1
243 1
244 1
245 1
246 28
247 28
248 1
249 1
250 28
251 28
252 28
253 14
254 1
255 1
256 1
257 1
258 1
259 1
260 14
261 7
262 1
263 1
264 28
265 28
266 7
267 1
268 1
269 1
270 1
271 1
272 28
273 14
274 7
275 1
276 1
277 1
278 1
279 28
280 28
281 7
282 1
283 1
284 1
285 1
286 1
287 14
288 7
289 1
290 1
291 1
292 1
293 1
294 1
295 28
296 1
297 1
298 1
299 1
300 1
301 28
302 14
303 1
304 28
305 7
306 1
307 1
308 1
309 1
310 1
311 28
312 14
313 7
314 28
315 7
316 1
317 1
318 1
319 1
320 1
321 1
322 14
323 1
324 1
325 1
326 1
327 1
328 14
329 1
330 1
331 1
332 1
333 28
334 14
335 28
336 28
337 1
338 1
339 1
340 1
341 1
342 1
343 28
344 14
345 7
346 1
347 28
348 28
349 7
350 1
351 1
352 1
353 1
354 1
355 28
356 1
357 1
358 1
359 1
360 1
361 1
362 28
363 7
364 14
365 1
366 1
367 1
368 1
369 1
370 28
371 14
372 1
373 1
374 28
375 28
376 28
377 1
378 1
379 1
380 1
381 1
382 28
383 1
384 1
385 1
386 1
387 1
388 1
389 28
390 1
DEPOT_SECTION
1
-1
EOF