SDVRP instances/custom_instances/p02_18_split0.sol
389 -6 5 1 3 4 2 7 233 231 230 228 232 229 373 336 341 340 337 -33 39 36 35 367 363 365 368 364 366 214 217 216 215 219 220 218 212 211 -38 34 37 19 16 23 18 22 17 20 24 21 158 155 154 152 157 153 156 151 -46 100 97 99 98 351 350 352 347 348 346 122 121 123 124 344 -47 45 48 44 49 63 65 66 64 190 191 195 -58 53 57 55 52 56 51 54 170 171 300 301 302 -62 61 59 60 334 362 361 101 105 107 102 106 103 108 -70 73 69 74 71 68 67 72 112 113 269 267 264 263 265 268 -81 80 50 246 245 -110 111 -126 127 130 129 177 178 175 176 209 203 204 206 208 207 205 277 272 276 273 275 -128 125 270 266 331 329 327 328 330 75 76 202 200 201 -134 137 136 131 132 133 135 333 332 79 77 78 210 213 -142 140 141 167 166 169 168 377 378 379 375 376 380 374 235 234 237 238 236 -146 148 145 150 144 147 149 143 12 15 9 14 10 13 11 8 288 287 286 291 289 290 293 292 262 260 261 -161 164 163 165 162 160 159 138 139 324 322 325 326 323 321 383 382 387 386 385 384 381 109 104 83 82 259 -174 172 173 335 338 339 250 249 -196 192 194 193 342 183 182 179 180 181 254 253 252 258 251 256 257 255 -198 197 199 41 43 42 40 353 349 343 345 -224 227 221 226 222 223 225 370 371 372 369 91 93 92 90 95 96 94 310 -243 240 241 242 244 239 184 186 187 189 188 185 388 389 271 274 -247 248 116 119 114 117 118 115 120 278 280 281 284 283 279 282 285 26 25 311 312 -294 299 298 295 296 297 87 88 86 85 89 84 313 314 316 318 315 320 319 317 -306 304 309 305 307 308 303 29 31 28 32 30 27 359 360 357 356 358 355 354 0 





OBJ=
2270.353
BEST_KNOWN=
0.000